Route #1: 75 68 6 51 17 40 12
Route #2: 67 34 46 8 35 7 53
Route #3: 26 4 45 29 48 47
Route #4: 52 27 13 54 19 14
Route #5: 30 74 28 62 73 33 63
Route #6: 2 1 43 41 42 64 22
Route #7: 16 3 44 32 9 39 72
Route #8: 58 10 38 65 11
Route #9: 5 37 20 70 60 71 36 69 21
Route #10: 15 57 61 23 56 49 24 18 50
Route #11: 25 55 31 66 59
cost: 994
